benchmarks/singlecore/bs/bs.out
sim-profile: SimpleScalar/PISA Tool Set version 3.0 of August, 2003.
Copyright (c) 1994-2003 by Todd M. Austin, Ph.D. and SimpleScalar, LLC.
All Rights Reserved. This version of SimpleScalar is licensed for academic
non-commercial use.  No portion of this work may be used by any commercial
entity, or for any commercial purpose, without the prior written permission
of SimpleScalar, LLC (info@simplescalar.com).

sim: command line: /home/sudiptac/sudiptac/Work/simplesim-3.0/sim-profile -pcstat sim_num_insn bs 

sim: simulation started @ Thu May 21 12:18:07 2009, options follow:

sim-profile: This simulator implements a functional simulator with
profiling support.  Run with the `-h' flag to see profiling options
available.

# -config                     # load configuration from a file
# -dumpconfig                 # dump configuration to a file
# -h                    false # print help message    
# -v                    false # verbose operation     
# -d                    false # enable debug message  
# -i                    false # start in Dlite debugger
-seed                       1 # random number generator seed (0 for timer seed)
# -q                    false # initialize and terminate immediately
# -chkpt               <null> # restore EIO trace execution from <fname>
# -redir:sim           <null> # redirect simulator output to file (non-interactive only)
# -redir:prog          <null> # redirect simulated program output to file
-nice                       0 # simulator scheduling priority
-max:inst                   0 # maximum number of inst's to execute
-all                    false # enable all profile options
-iclass                 false # enable instruction class profiling
-iprof                  false # enable instruction profiling
-brprof                 false # enable branch instruction profiling
-amprof                 false # enable address mode profiling
-segprof                false # enable load/store address segment profiling
-tsymprof               false # enable text symbol profiling
-taddrprof              false # enable text address profiling
-dsymprof               false # enable data symbol profiling
-internal               false # include compiler-internal symbols during symbol profiling
# -pcstat        sim_num_insn # profile stat(s) against text addr's (mult uses ok)

sim: ** starting functional simulation **

sim: ** simulation statistics **
sim_num_insn                   5995 # total number of instructions executed
sim_num_refs                   3597 # total number of loads and stores executed
sim_elapsed_time                  1 # total simulation time in seconds
sim_inst_rate             5995.0000 # simulation speed (in insts/sec)

sim_num_insn_by_pc     # total number of instructions executed (by text address)
sim_num_insn_by_pc.count = 796
sim_num_insn_by_pc.total = 5994
sim_num_insn_by_pc.imin = 0x400140
sim_num_insn_by_pc.imax = 0x4056b0
sim_num_insn_by_pc.average =   7.5302
sim_num_insn_by_pc.std_dev =  47.3625
sim_num_insn_by_pc.overflows = 0
# pdf == prob dist fn, cdf == cumulative dist fn
#          index      count    pdf 
sim_num_insn_by_pc.start_dist
0x400140 1 0.02
0x400148 1 0.02
0x400150 1 0.02
0x400158 1 0.02
0x400160 1 0.02
0x400168 1 0.02
0x400170 1 0.02
0x400178 1 0.02
0x400180 1 0.02
0x400188 1 0.02
0x400190 1 0.02
0x400198 1 0.02
0x4001a0 1 0.02
0x4001a8 1 0.02
0x4001b0 1 0.02
0x4001b8 1 0.02
0x4001c0 1 0.02
0x4001c8 1 0.02
0x4001d0 1 0.02
0x4001d8 1 0.02
0x4001e0 1 0.02
0x4001f0 1 0.02
0x4001f8 1 0.02
0x400200 1 0.02
0x400208 1 0.02
0x400210 1 0.02
0x400218 1 0.02
0x400220 1 0.02
0x400228 1 0.02
0x400230 1 0.02
0x400238 1 0.02
0x400240 5 0.08
0x400248 5 0.08
0x400250 5 0.08
0x400258 5 0.08
0x400260 5 0.08
0x400268 5 0.08
0x400270 5 0.08
0x400278 1 0.02
0x400280 1 0.02
0x400288 1 0.02
0x400290 1 0.02
0x400298 1 0.02
0x4002a0 4 0.07
0x4002a8 4 0.07
0x4002b0 3 0.05
0x4002b8 3 0.05
0x4002c0 1 0.02
0x4002c8 5 0.08
0x4002d0 5 0.08
0x4002d8 1 0.02
0x4002e0 1 0.02
0x4002f0 1 0.02
0x4002f8 1 0.02
0x400300 1 0.02
0x400308 1 0.02
0x400310 1 0.02
0x400318 1 0.02
0x400320 1 0.02
0x400328 1 0.02
0x400330 1 0.02
0x400338 1 0.02
0x400340 1 0.02
0x400348 1 0.02
0x400350 1 0.02
0x400358 1 0.02
0x400360 1 0.02
0x400368 1 0.02
0x400370 1 0.02
0x400378 1 0.02
0x400380 1 0.02
0x400388 1 0.02
0x400390 1 0.02
0x400398 1 0.02
0x4003a0 1 0.02
0x400450 1 0.02
0x400458 1 0.02
0x400460 1 0.02
0x400468 1 0.02
0x400470 1 0.02
0x4004c0 1 0.02
0x4004c8 1 0.02
0x4004d0 1 0.02
0x4004d8 1 0.02
0x4004e0 1 0.02
0x4004e8 1 0.02
0x4004f0 1 0.02
0x4004f8 1 0.02
0x400500 1 0.02
0x400508 1 0.02
0x400510 1 0.02
0x400518 1 0.02
0x400528 1 0.02
0x400530 1 0.02
0x400538 1 0.02
0x400540 1 0.02
0x400548 1 0.02
0x400760 1 0.02
0x400768 1 0.02
0x400770 1 0.02
0x400778 1 0.02
0x400780 1 0.02
0x400788 1 0.02
0x400790 1 0.02
0x4007b0 1 0.02
0x4007d0 1 0.02
0x4007d8 1 0.02
0x4007e0 1 0.02
0x4007e8 1 0.02
0x4007f0 1 0.02
0x4007f8 1 0.02
0x400818 1 0.02
0x400820 1 0.02
0x400828 1 0.02
0x400830 1 0.02
0x400850 1 0.02
0x400858 1 0.02
0x400860 1 0.02
0x400868 1 0.02
0x400870 1 0.02
0x400878 1 0.02
0x400880 1 0.02
0x400888 1 0.02
0x400890 1 0.02
0x400898 1 0.02
0x4008a0 1 0.02
0x4008a8 1 0.02
0x4008b0 1 0.02
0x4008b8 1 0.02
0x4008c0 1 0.02
0x4008c8 1 0.02
0x4008d0 1 0.02
0x4008d8 1 0.02
0x4008e0 1 0.02
0x4008e8 1 0.02
0x4008f0 1 0.02
0x4008f8 1 0.02
0x400900 1 0.02
0x400908 1 0.02
0x400918 1 0.02
0x400920 1 0.02
0x400928 1 0.02
0x400930 1 0.02
0x400938 1 0.02
0x400940 1 0.02
0x400948 1 0.02
0x400950 1 0.02
0x400958 1 0.02
0x400960 1 0.02
0x400968 1 0.02
0x400970 1 0.02
0x400978 1 0.02
0x400980 1 0.02
0x400988 1 0.02
0x400990 1 0.02
0x400998 1 0.02
0x4009a0 1 0.02
0x4009a8 1 0.02
0x4009b0 1 0.02
0x4009b8 1 0.02
0x4009c0 1 0.02
0x4009c8 1 0.02
0x4009d0 1 0.02
0x4009d8 1 0.02
0x4009e8 1 0.02
0x4009f0 1 0.02
0x4009f8 1 0.02
0x400a00 1 0.02
0x400a08 1 0.02
0x400a10 1 0.02
0x400a18 1 0.02
0x400a20 1 0.02
0x400a28 1 0.02
0x400a30 1 0.02
0x400a38 1 0.02
0x400a40 1 0.02
0x400a48 1 0.02
0x400a50 1 0.02
0x400a58 1 0.02
0x400a60 1 0.02
0x400a68 1 0.02
0x400a98 1 0.02
0x400aa0 1 0.02
0x400ab0 1 0.02
0x400ab8 1 0.02
0x400ad0 1 0.02
0x400ad8 1 0.02
0x400ae0 1 0.02
0x400ae8 1 0.02
0x400af8 1 0.02
0x400b00 1 0.02
0x400b08 1 0.02
0x400b10 1 0.02
0x400b18 1 0.02
0x400da0 1 0.02
0x400da8 1 0.02
0x400db0 1 0.02
0x400db8 1 0.02
0x400dc8 1 0.02
0x400dd0 1 0.02
0x400dd8 1 0.02
0x400de0 1 0.02
0x400de8 1 0.02
0x400df0 1 0.02
0x400df8 1 0.02
0x400e00 1 0.02
0x400e08 1 0.02
0x400e10 1 0.02
0x400e18 1 0.02
0x400e20 1 0.02
0x400e28 1 0.02
0x400e30 1 0.02
0x400e38 1 0.02
0x400e40 1 0.02
0x400e48 1 0.02
0x400e50 1 0.02
0x400e58 1 0.02
0x400e60 1 0.02
0x400e68 1 0.02
0x400e70 1 0.02
0x400e88 1 0.02
0x400e90 1 0.02
0x400e98 1 0.02
0x400ea0 1 0.02
0x400ea8 1 0.02
0x400eb0 1 0.02
0x400ec0 1 0.02
0x400ec8 1 0.02
0x401260 1 0.02
0x401268 1 0.02
0x401270 1 0.02
0x401278 1 0.02
0x401280 1 0.02
0x401288 1 0.02
0x401290 1 0.02
0x401298 1 0.02
0x4012a0 1 0.02
0x4012a8 1 0.02
0x4012b0 1 0.02
0x4012b8 1 0.02
0x4012c0 1 0.02
0x4012c8 1 0.02
0x4012d0 1 0.02
0x4012d8 1 0.02
0x4012e0 1 0.02
0x4012e8 1 0.02
0x4012f0 1 0.02
0x4012f8 1 0.02
0x401300 1 0.02
0x401308 1 0.02
0x401310 1 0.02
0x401318 1 0.02
0x401320 1 0.02
0x401328 1 0.02
0x401410 1 0.02
0x401418 1 0.02
0x401420 1 0.02
0x401428 1 0.02
0x401430 1 0.02
0x401438 1 0.02
0x401440 1 0.02
0x401450 1 0.02
0x401458 1 0.02
0x401460 1 0.02
0x401468 1 0.02
0x401470 1 0.02
0x401478 1 0.02
0x401480 1 0.02
0x401488 1 0.02
0x401490 1 0.02
0x401498 1 0.02
0x4014a0 1 0.02
0x4014a8 1 0.02
0x4014b0 1 0.02
0x4014b8 1 0.02
0x4014c0 1 0.02
0x4014c8 1 0.02
0x4014d0 1 0.02
0x401768 1 0.02
0x401770 1 0.02
0x401778 1 0.02
0x401780 1 0.02
0x401788 1 0.02
0x401790 1 0.02
0x401798 1 0.02
0x4017a0 1 0.02
0x4017b0 4 0.07
0x4017b8 4 0.07
0x4017c0 4 0.07
0x4017c8 4 0.07
0x4017d0 4 0.07
0x4017d8 4 0.07
0x4017e0 4 0.07
0x4017e8 1 0.02
0x4017f0 1 0.02
0x4017f8 1 0.02
0x401800 1 0.02
0x401808 1 0.02
0x401810 1 0.02
0x401818 3 0.05
0x401820 3 0.05
0x401838 3 0.05
0x401840 3 0.05
0x401848 3 0.05
0x401850 3 0.05
0x401858 3 0.05
0x401860 3 0.05
0x401868 1 0.02
0x401870 1 0.02
0x401878 3 0.05
0x401880 3 0.05
0x401888 3 0.05
0x401890 3 0.05
0x4018a8 3 0.05
0x4018b0 3 0.05
0x4018b8 3 0.05
0x4018c0 3 0.05
0x4018e8 3 0.05
0x4018f0 3 0.05
0x4018f8 3 0.05
0x401900 2 0.03
0x401908 2 0.03
0x401910 2 0.03
0x401918 2 0.03
0x401920 2 0.03
0x401938 3 0.05
0x401940 3 0.05
0x401948 1 0.02
0x401950 1 0.02
0x401958 1 0.02
0x401960 1 0.02
0x401968 3 0.05
0x401970 3 0.05
0x401978 2 0.03
0x401980 2 0.03
0x401988 2 0.03
0x401990 2 0.03
0x401998 1 0.02
0x4019a0 1 0.02
0x4019a8 1 0.02
0x4019b0 1 0.02
0x4019b8 1 0.02
0x4019d8 1 0.02
0x4019e0 3 0.05
0x4019e8 3 0.05
0x4019f0 3 0.05
0x4019f8 4 0.07
0x401a00 4 0.07
0x401a08 4 0.07
0x401a10 4 0.07
0x401a18 4 0.07
0x401a20 4 0.07
0x401a50 1 0.02
0x401a58 1 0.02
0x401a60 1 0.02
0x401a68 1 0.02
0x401aa0 1 0.02
0x401aa8 1 0.02
0x401ab0 1 0.02
0x401ab8 1 0.02
0x401ac0 1 0.02
0x401ac8 1 0.02
0x401ad0 1 0.02
0x401ad8 1 0.02
0x401ae0 1 0.02
0x401ae8 1 0.02
0x401af0 1 0.02
0x401af8 1 0.02
0x401b00 1 0.02
0x401b08 1 0.02
0x401b40 1 0.02
0x401b48 1 0.02
0x401b50 1 0.02
0x401b58 1 0.02
0x401b60 1 0.02
0x401b68 1 0.02
0x401b70 1 0.02
0x401b78 1 0.02
0x401b80 1 0.02
0x401b88 1 0.02
0x401b90 1 0.02
0x401b98 1 0.02
0x401bd8 1 0.02
0x401be0 1 0.02
0x401be8 1 0.02
0x401bf0 3 0.05
0x401bf8 3 0.05
0x401c00 3 0.05
0x401c08 3 0.05
0x401c10 3 0.05
0x401c18 3 0.05
0x401c20 3 0.05
0x401c28 3 0.05
0x401c30 3 0.05
0x401c38 3 0.05
0x401c40 4 0.07
0x401c48 4 0.07
0x401c50 4 0.07
0x401c58 4 0.07
0x401c60 4 0.07
0x401c68 4 0.07
0x401c70 4 0.07
0x401c78 4 0.07
0x401c80 4 0.07
0x401c88 4 0.07
0x401cb8 4 0.07
0x401cc0 4 0.07
0x401cc8 4 0.07
0x401cd0 390 6.51
0x401cd8 390 6.51
0x401ce0 390 6.51
0x401ce8 390 6.51
0x401cf0 390 6.51
0x401cf8 390 6.51
0x401d00 390 6.51
0x401d08 390 6.51
0x401d10 390 6.51
0x401d18 390 6.51
0x401d20 390 6.51
0x401d28 390 6.51
0x401d30 4 0.07
0x401d38 4 0.07
0x401d40 4 0.07
0x401d48 12 0.20
0x401d50 12 0.20
0x401d58 12 0.20
0x401d60 12 0.20
0x401d68 4 0.07
0x401d70 4 0.07
0x401d98 4 0.07
0x401da0 4 0.07
0x401f70 1 0.02
0x401f78 1 0.02
0x401f80 1 0.02
0x401f88 1 0.02
0x401f90 1 0.02
0x401f98 1 0.02
0x401fa0 1 0.02
0x401fa8 1 0.02
0x401fb0 1 0.02
0x401fb8 1 0.02
0x401fc8 1 0.02
0x401fd0 1 0.02
0x401fd8 1 0.02
0x401fe0 1 0.02
0x401fe8 1 0.02
0x401ff0 1 0.02
0x401ff8 1 0.02
0x402000 1 0.02
0x402008 1 0.02
0x402010 1 0.02
0x402018 1 0.02
0x402020 1 0.02
0x402028 1 0.02
0x402030 1 0.02
0x402038 1 0.02
0x402040 1 0.02
0x402048 1 0.02
0x402050 1 0.02
0x402058 1 0.02
0x402060 1 0.02
0x402068 1 0.02
0x402070 1 0.02
0x402078 1 0.02
0x402080 1 0.02
0x402088 1 0.02
0x4020d8 1 0.02
0x4020e0 1 0.02
0x4020e8 1 0.02
0x4020f0 1 0.02
0x4020f8 1 0.02
0x402100 1 0.02
0x402108 1 0.02
0x402120 1 0.02
0x402128 1 0.02
0x402130 1 0.02
0x402138 1 0.02
0x402140 1 0.02
0x402148 1 0.02
0x402150 1 0.02
0x402158 1 0.02
0x402160 1 0.02
0x402168 1 0.02
0x402170 1 0.02
0x402178 1 0.02
0x402180 1 0.02
0x4021d0 1 0.02
0x4021d8 1 0.02
0x4021e0 1 0.02
0x4021e8 1 0.02
0x4021f0 1 0.02
0x4021f8 1 0.02
0x402200 1 0.02
0x402208 1 0.02
0x402210 1 0.02
0x402218 1 0.02
0x402220 1 0.02
0x402228 1 0.02
0x402230 1 0.02
0x402238 1 0.02
0x402240 1 0.02
0x402248 1 0.02
0x402250 1 0.02
0x402258 1 0.02
0x402260 1 0.02
0x402268 1 0.02
0x402270 1 0.02
0x402278 1 0.02
0x402280 1 0.02
0x402288 1 0.02
0x402290 1 0.02
0x402298 1 0.02
0x4022a0 1 0.02
0x4022a8 1 0.02
0x402360 1 0.02
0x402368 1 0.02
0x402370 1 0.02
0x402378 1 0.02
0x402380 1 0.02
0x4024d0 1 0.02
0x4024d8 1 0.02
0x4027e8 1 0.02
0x4027f0 1 0.02
0x4027f8 1 0.02
0x402800 1 0.02
0x402808 1 0.02
0x402810 1 0.02
0x402818 1 0.02
0x402820 1 0.02
0x402828 1 0.02
0x402830 1 0.02
0x402838 1 0.02
0x402840 1 0.02
0x402868 1 0.02
0x402870 1 0.02
0x4028a0 1 0.02
0x4028a8 1 0.02
0x4028b0 1 0.02
0x4028b8 1 0.02
0x402ce8 2 0.03
0x402cf0 2 0.03
0x402cf8 2 0.03
0x402d00 2 0.03
0x402d08 2 0.03
0x402d10 2 0.03
0x402d18 2 0.03
0x402d20 2 0.03
0x402d28 2 0.03
0x402d30 2 0.03
0x402d38 2 0.03
0x402d40 2 0.03
0x402d48 2 0.03
0x402d50 2 0.03
0x402d58 2 0.03
0x402d60 2 0.03
0x402d68 2 0.03
0x402d70 2 0.03
0x402d78 2 0.03
0x402d80 2 0.03
0x402d88 2 0.03
0x402d90 2 0.03
0x402d98 2 0.03
0x402da0 2 0.03
0x402da8 2 0.03
0x402db0 2 0.03
0x402db8 2 0.03
0x402dc0 2 0.03
0x402f78 2 0.03
0x402f80 2 0.03
0x402f88 1 0.02
0x402f90 1 0.02
0x402f98 1 0.02
0x402fa0 1 0.02
0x402fa8 1 0.02
0x402fb0 1 0.02
0x402fb8 1 0.02
0x403020 2 0.03
0x403028 2 0.03
0x403030 2 0.03
0x403038 2 0.03
0x403070 2 0.03
0x403078 2 0.03
0x403080 2 0.03
0x403088 2 0.03
0x403090 2 0.03
0x403098 2 0.03
0x4030a0 2 0.03
0x4030a8 2 0.03
0x4030b0 2 0.03
0x4030b8 2 0.03
0x4030c0 2 0.03
0x4033c0 2 0.03
0x4033c8 2 0.03
0x4033d0 2 0.03
0x4033d8 2 0.03
0x4033e0 2 0.03
0x4033e8 2 0.03
0x4033f0 2 0.03
0x4033f8 2 0.03
0x403400 2 0.03
0x403418 2 0.03
0x403420 2 0.03
0x403428 2 0.03
0x403430 2 0.03
0x403438 2 0.03
0x403440 2 0.03
0x403448 2 0.03
0x403450 2 0.03
0x403458 2 0.03
0x403460 2 0.03
0x403468 2 0.03
0x403900 2 0.03
0x403908 2 0.03
0x403910 2 0.03
0x403918 2 0.03
0x403920 2 0.03
0x403928 2 0.03
0x403930 2 0.03
0x403938 2 0.03
0x403940 2 0.03
0x403948 2 0.03
0x403950 2 0.03
0x403958 2 0.03
0x403960 2 0.03
0x403968 2 0.03
0x403970 2 0.03
0x403988 2 0.03
0x403990 2 0.03
0x403998 2 0.03
0x4039a0 2 0.03
0x4039a8 2 0.03
0x4039b0 2 0.03
0x4039b8 2 0.03
0x4039e0 2 0.03
0x4039e8 2 0.03
0x4039f0 2 0.03
0x4039f8 2 0.03
0x403a00 2 0.03
0x403a38 2 0.03
0x403a40 2 0.03
0x403a48 2 0.03
0x403a50 2 0.03
0x403a58 2 0.03
0x403a60 2 0.03
0x403a68 2 0.03
0x403a70 2 0.03
0x403a78 2 0.03
0x403a80 2 0.03
0x403a88 2 0.03
0x403a90 2 0.03
0x403a98 2 0.03
0x403aa0 2 0.03
0x403aa8 2 0.03
0x403ab0 2 0.03
0x403ab8 2 0.03
0x403ac0 2 0.03
0x403ac8 2 0.03
0x403ad0 2 0.03
0x403ad8 2 0.03
0x403ae0 2 0.03
0x403ae8 2 0.03
0x403af0 2 0.03
0x403af8 2 0.03
0x403b00 2 0.03
0x403b08 2 0.03
0x403b10 2 0.03
0x403b18 2 0.03
0x403b20 2 0.03
0x403b28 1 0.02
0x403b30 1 0.02
0x403b48 1 0.02
0x403b50 1 0.02
0x403b58 1 0.02
0x403b60 1 0.02
0x403b68 1 0.02
0x403b70 1 0.02
0x403b78 1 0.02
0x403bb0 1 0.02
0x403bb8 1 0.02
0x403bc0 1 0.02
0x403be8 2 0.03
0x403bf0 2 0.03
0x403bf8 2 0.03
0x403c00 2 0.03
0x403c08 2 0.03
0x403c10 2 0.03
0x403c18 2 0.03
0x403c20 2 0.03
0x403c28 2 0.03
0x403c58 2 0.03
0x403d20 2 0.03
0x403d28 2 0.03
0x403d30 2 0.03
0x403d58 2 0.03
0x403d60 2 0.03
0x403d70 2 0.03
0x403d78 2 0.03
0x403d80 2 0.03
0x403d88 2 0.03
0x403d90 2 0.03
0x403d98 2 0.03
0x403dc8 2 0.03
0x403dd0 2 0.03
0x403dd8 2 0.03
0x403de0 2 0.03
0x403df8 2 0.03
0x403e00 2 0.03
0x403e08 2 0.03
0x403e10 2 0.03
0x403e18 2 0.03
0x403e20 2 0.03
0x403e28 2 0.03
0x403e30 2 0.03
0x4043c8 3 0.05
0x4043d0 3 0.05
0x4043d8 3 0.05
0x4043e0 3 0.05
0x4043e8 3 0.05
0x4043f0 3 0.05
0x4043f8 3 0.05
0x404400 3 0.05
0x404408 3 0.05
0x404410 3 0.05
0x404418 3 0.05
0x404420 3 0.05
0x404428 3 0.05
0x404430 3 0.05
0x404438 3 0.05
0x4045e0 2 0.03
0x4045e8 2 0.03
0x4045f0 2 0.03
0x4045f8 2 0.03
0x404600 2 0.03
0x404608 2 0.03
0x404a80 3 0.05
0x404a88 3 0.05
0x404a90 3 0.05
0x404a98 3 0.05
0x404ab0 3 0.05
0x404ab8 3 0.05
0x404ac0 3 0.05
0x404ac8 3 0.05
0x404ad0 3 0.05
0x404ad8 3 0.05
0x404ae0 3 0.05
0x404ae8 3 0.05
0x404af0 3 0.05
0x404af8 3 0.05
0x404b00 3 0.05
0x405360 2 0.03
0x405368 2 0.03
0x405370 2 0.03
0x405378 2 0.03
0x405380 2 0.03
0x405388 2 0.03
0x405390 2 0.03
0x405398 2 0.03
0x4053a0 2 0.03
0x4053a8 2 0.03
0x4053b0 2 0.03
0x4053b8 1 0.02
0x4053c0 1 0.02
0x4053c8 1 0.02
0x4053d0 1 0.02
0x4053d8 1 0.02
0x4053e0 1 0.02
0x4053e8 1 0.02
0x4053f0 1 0.02
0x405418 1 0.02
0x405420 1 0.02
0x405460 1 0.02
0x405468 1 0.02
0x405470 2 0.03
0x405478 2 0.03
0x405480 2 0.03
0x405488 2 0.03
0x405490 2 0.03
0x405570 2 0.03
0x405578 2 0.03
0x405580 2 0.03
0x405588 2 0.03
0x405590 2 0.03
0x405620 3 0.05
0x405628 3 0.05
0x405630 3 0.05
0x405640 3 0.05
0x405648 3 0.05
0x405650 3 0.05
0x405658 3 0.05
0x405660 3 0.05
0x405668 3 0.05
0x405690 1 0.02
0x405698 1 0.02
0x4056a0 1 0.02
0x4056a8 1 0.02
0x4056b0 1 0.02
sim_num_insn_by_pc.end_dist

ld_text_base             0x00400000 # program text (code) segment base
ld_text_size                  22512 # program text (code) size in bytes
ld_data_base             0x10000000 # program initialized data segment base
ld_data_size                   4096 # program init'ed `.data' and uninit'ed `.bss' size in bytes
ld_stack_base            0x7fffc000 # program stack segment base (highest address in stack)
ld_stack_size                 16384 # program initial stack size
ld_prog_entry            0x00400140 # program entry point (initial PC)
ld_environ_base          0x7fff8000 # program environment base address address
ld_target_big_endian              0 # target executable endian-ness, non-zero if big endian
mem.page_count                   12 # total number of pages allocated
mem.page_mem                    48k # total size of memory pages allocated
mem.ptab_misses                  12 # total first level page table misses
mem.ptab_accesses            174276 # total page table accesses
mem.ptab_miss_rate           0.0001 # first level page table miss rate

+--------------------------------------------------------------+
| effective code range:         [0, fffffff8]                  |
| effective bpred count:        0                              |
| effective sim cycles:         0                              |
| effective bpred misses:       0                              |
| effective icache misses:      0                              |
+--------------------------------------------------------------+

